n_res = 7;
rcap = [37, 27, 30, 36, 27, 108, 114];
rtype = [1, 1, 1, 1, 1, 2, 2];
n_tasks = 16;
modes = [ {1, 2, 3}, {4, 5, 6}, {7, 8, 9}, {10, 11, 12}, {13, 14, 15}, {16, 17, 18}, {19, 20, 21}, {22, 23, 24}, {25, 26, 27}, {28, 29, 30}, {31, 32, 33}, {34, 35, 36}, {37, 38, 39}, {40, 41, 42}, {43, 44, 45}, {46, 47, 48} ];
succ = [ {5, 9, 12}, {7, 13, 15}, {4, 5}, {6}, {10, 16}, {8, 15, 16}, {11, 12, 16}, {9, 11, 12}, {13}, {11, 13, 15}, {14}, {14}, {14}, {}, {}, {} ];
n_opt = 48;
dur = [2, 4, 10, 1, 1, 2, 4, 4, 7, 1, 9, 10, 1, 5, 9, 5, 5, 7, 5, 10, 10, 1, 2, 9, 1, 3, 4, 3, 3, 4, 1, 4, 8, 3, 5, 10, 5, 6, 8, 1, 4, 7, 5, 10, 10, 6, 10, 10];
rreq = [| 10, 10,  9,  8,  9,  8,  4,  6,  3, 10, 10,  9,  6,  6,  3,  4,  4,  4,  4,  3,  1,  9,  6,  5,  8,  6,  3,  7,  6,  2,  9,  7,  5,  4,  4,  4,  7,  6,  5,  5,  5,  4, 10,  8,  7,  6,  5,  6
        |  2,  2,  2,  8,  7,  6,  7, 10,  5,  9,  7,  6, 10,  7,  2,  6,  8,  4,  8,  5,  6,  4,  3,  3,  7,  6,  4,  9,  8,  5,  3,  3,  1,  2,  2,  1,  8,  8,  7,  6,  4,  3,  7,  6,  6,  2,  2,  1
        | 10, 10, 10,  8,  9,  8,  5,  5,  4,  7,  7,  6,  5,  5,  1,  3,  3,  3,  5,  4,  2,  6,  3,  3,  5,  5,  4, 10,  8,  7,  4,  4,  4, 10, 10, 10,  8,  6,  4, 10,  9,  9,  6,  3,  4,  5,  5,  4
        |  7,  5,  4,  3,  3,  3,  7,  7,  3, 10,  9,  9,  8,  8,  8,  2,  2,  2,  6,  2,  4,  9,  9,  9,  8,  5,  3,  6,  6,  4,  7,  7,  6,  6,  4,  4,  8,  7,  6,  3,  3,  2,  8,  5,  6,  7,  5,  7
        |  7,  6,  3,  6,  6,  6,  5,  4,  4,  6,  6,  1, 10, 10, 10,  6,  5,  2,  8,  8,  7,  4,  3,  3,  4,  3,  3,  3,  3,  3,  7,  5,  5, 10, 10,  9,  9,  9,  8,  6,  6,  5,  3,  3,  2,  3,  1,  3
        |  8,  8,  7,  8, 10,  5,  2,  2,  1,  2,  2,  1,  6,  6,  5,  7,  6,  5,  7,  5,  2,  3,  3,  2,  9,  5,  3,  6,  7,  1, 10,  9,  7,  8,  8,  8,  8,  8,  7,  6,  5,  4,  8,  7,  6,  7,  6,  4
        |  8,  7,  7,  4,  4,  3,  7,  7,  6,  8,  7,  7,  7,  6,  2,  7,  8,  5,  9,  7,  8, 10,  9,  7,  9,  8,  6,  6,  6,  6,  8,  7,  7,  3,  2,  2,  7,  5,  3,  8,  7,  7,  8,  3,  5,  4,  4,  4 |];
